(declare-fun temp990_2 () (_ BitVec 64))
(declare-fun temp990_1 () (_ BitVec 64))
(declare-fun temp990_4 () (_ BitVec 64))
(declare-fun temp990_3 () (_ BitVec 64))
(declare-fun temp990_6 () (_ BitVec 64))
(declare-fun temp990_5 () (_ BitVec 64))
(declare-fun temp990_8 () (_ BitVec 64))
(declare-fun temp990_7 () (_ BitVec 64))
(declare-fun temp990_9 () (_ BitVec 64))
(declare-fun var2174808 () (_ BitVec 64))
(declare-fun var2174932 () (_ BitVec 64))
(declare-fun temp990_11 () (_ BitVec 64))
(declare-fun temp990_10 () (_ BitVec 64))
(declare-fun temp990_13 () (_ BitVec 64))
(declare-fun temp990_12 () (_ BitVec 64))
(declare-fun temp990_15 () (_ BitVec 64))
(declare-fun temp990_14 () (_ BitVec 64))
(declare-fun temp990_17 () (_ BitVec 64))
(declare-fun temp990_16 () (_ BitVec 64))
(declare-fun temp990_18 () (_ BitVec 64))
(declare-fun var5189464 () (_ BitVec 64))
(declare-fun var5189588 () (_ BitVec 64))
(declare-fun temp990_20 () (_ BitVec 64))
(declare-fun temp990_19 () (_ BitVec 64))
(declare-fun temp990_21 () (_ BitVec 64))
(declare-fun var6367345 () (_ BitVec 64))
(declare-fun temp990_23 () (_ BitVec 64))
(declare-fun temp990_22 () (_ BitVec 64))
(declare-fun temp990_25 () (_ BitVec 64))
(declare-fun temp990_24 () (_ BitVec 64))
(declare-fun temp990_27 () (_ BitVec 64))
(declare-fun temp990_26 () (_ BitVec 64))
(declare-fun temp990_29 () (_ BitVec 64))
(declare-fun temp990_28 () (_ BitVec 64))
(declare-fun temp990_30 () (_ BitVec 64))
(declare-fun var8204120 () (_ BitVec 64))
(declare-fun var8204244 () (_ BitVec 64))
(declare-fun temp990_32 () (_ BitVec 64))
(declare-fun temp990_31 () (_ BitVec 64))
(declare-fun temp990_33 () (_ BitVec 64))
(declare-fun var9513073 () (_ BitVec 64))
(declare-fun var2175221 () (_ BitVec 64))
(declare-fun temp990_34 () (_ BitVec 64))
(declare-fun var2175222 () (_ BitVec 64))
(declare-fun temp990_35 () (_ BitVec 64))
(assert (= temp990_2 #x0000000000000000))
(assert (= temp990_1 temp990_2))
(assert (= temp990_4 #x0000000000000001))
(assert (= temp990_3 temp990_4))
(assert (= temp990_6 #x0000000000000000))
(assert (= temp990_5 temp990_6))
(assert (= temp990_8 #x0000000000000001))
(assert (= temp990_7 temp990_8))
(assert (= temp990_9 #x0000000000000000))
(assert (= var2174808 temp990_9))
(assert (= var2174932 var2174808))
(assert (= temp990_11 #x0000000000000000))
(assert (= temp990_10 temp990_11))
(assert (= temp990_13 #x0000000000000001))
(assert (= temp990_12 temp990_13))
(assert (= temp990_15 #x0000000000000000))
(assert (= temp990_14 temp990_15))
(assert (= temp990_17 #x0000000000000001))
(assert (= temp990_16 temp990_17))
(assert (= temp990_18 #x0000000000000000))
(assert (= var5189464 temp990_18))
(assert (= var5189588 var5189464))
(assert (= temp990_20 #x0000000000000001))
(assert (= temp990_19 temp990_20))
(assert (= temp990_21 #x0000000000000000))
(assert (= var6367345 temp990_21))
(assert (= temp990_23 #x0000000000000000))
(assert (= temp990_22 temp990_23))
(assert (= temp990_25 #x0000000000000001))
(assert (= temp990_24 temp990_25))
(assert (= temp990_27 #x0000000000000000))
(assert (= temp990_26 temp990_27))
(assert (= temp990_29 #x0000000000000001))
(assert (= temp990_28 temp990_29))
(assert (= temp990_30 #x0000000000000000))
(assert (= var8204120 temp990_30))
(assert (= var8204244 var8204120))
(assert (= temp990_32 #x0000000000000001))
(assert (= temp990_31 temp990_32))
(assert (= temp990_33 #x0000000000000000))
(assert (= var9513073 temp990_33))
(assert (= var2175221 var2174932))
(assert (= temp990_34 #x0000000000000000))
(assert (= var2175222
   (ite (= var2175221 temp990_34) #x0000000000000001 #x0000000000000000)))
(assert (= temp990_35 #x0000000000000001))
(assert (= var2175222 temp990_35))
(model-add temp990_2 () (_ BitVec 64) #x0000000000000000)
(model-add temp990_1 () (_ BitVec 64) #x0000000000000000)
(model-add temp990_4 () (_ BitVec 64) #x0000000000000001)
(model-add temp990_3 () (_ BitVec 64) #x0000000000000001)
(model-add temp990_6 () (_ BitVec 64) #x0000000000000000)
(model-add temp990_5 () (_ BitVec 64) #x0000000000000000)
(model-add temp990_8 () (_ BitVec 64) #x0000000000000001)
(model-add temp990_7 () (_ BitVec 64) #x0000000000000001)
(model-add temp990_9 () (_ BitVec 64) #x0000000000000000)
(model-add var2174808 () (_ BitVec 64) #x0000000000000000)
(model-add var2174932 () (_ BitVec 64) #x0000000000000000)
(model-add temp990_11 () (_ BitVec 64) #x0000000000000000)
(model-add temp990_10 () (_ BitVec 64) #x0000000000000000)
(model-add temp990_13 () (_ BitVec 64) #x0000000000000001)
(model-add temp990_12 () (_ BitVec 64) #x0000000000000001)
(model-add temp990_15 () (_ BitVec 64) #x0000000000000000)
(model-add temp990_14 () (_ BitVec 64) #x0000000000000000)
(model-add temp990_17 () (_ BitVec 64) #x0000000000000001)
(model-add temp990_16 () (_ BitVec 64) #x0000000000000001)
(model-add temp990_18 () (_ BitVec 64) #x0000000000000000)
(model-add var5189464 () (_ BitVec 64) #x0000000000000000)
(model-add var5189588 () (_ BitVec 64) #x0000000000000000)
(model-add temp990_20 () (_ BitVec 64) #x0000000000000001)
(model-add temp990_19 () (_ BitVec 64) #x0000000000000001)
(model-add temp990_21 () (_ BitVec 64) #x0000000000000000)
(model-add var6367345 () (_ BitVec 64) #x0000000000000000)
(model-add temp990_23 () (_ BitVec 64) #x0000000000000000)
(model-add temp990_22 () (_ BitVec 64) #x0000000000000000)
(model-add temp990_25 () (_ BitVec 64) #x0000000000000001)
(model-add temp990_24 () (_ BitVec 64) #x0000000000000001)
(model-add temp990_27 () (_ BitVec 64) #x0000000000000000)
(model-add temp990_26 () (_ BitVec 64) #x0000000000000000)
(model-add temp990_29 () (_ BitVec 64) #x0000000000000001)
(model-add temp990_28 () (_ BitVec 64) #x0000000000000001)
(model-add temp990_30 () (_ BitVec 64) #x0000000000000000)
(model-add var8204120 () (_ BitVec 64) #x0000000000000000)
(model-add var8204244 () (_ BitVec 64) #x0000000000000000)
(model-add temp990_32 () (_ BitVec 64) #x0000000000000001)
(model-add temp990_31 () (_ BitVec 64) #x0000000000000001)
(model-add temp990_33 () (_ BitVec 64) #x0000000000000000)
(model-add var9513073 () (_ BitVec 64) #x0000000000000000)
(model-add var2175221 () (_ BitVec 64) #x0000000000000000)
(model-add temp990_34 () (_ BitVec 64) #x0000000000000000)
(model-add var2175222 () (_ BitVec 64) #x0000000000000001)
(model-add temp990_35 () (_ BitVec 64) #x0000000000000001)



